[TITLE]
;; N5 hydraulic reference network for GBBRPM external validation

[OPTIONS]
FLOW_UNITS           CMS
INFILTRATION         HORTON
FLOW_ROUTING         DYNWAVE
LINK_OFFSETS         DEPTH
MIN_SLOPE            0
ALLOW_PONDING        YES
SKIP_STEADY_STATE    NO
START_DATE           09/05/2026
START_TIME           00:00:00
REPORT_START_DATE    09/05/2026
REPORT_START_TIME    00:00:00
END_DATE             09/05/2026
END_TIME             03:00:00
SWEEP_START          01/01
SWEEP_END            12/31
DRY_DAYS             0
REPORT_STEP          00:01:00
WET_STEP             00:01:00
DRY_STEP             01:00:00
ROUTING_STEP         00:00:10
RULE_STEP            00:00:00
INERTIAL_DAMPING     PARTIAL
NORMAL_FLOW_LIMITED  BOTH
FORCE_MAIN_EQUATION  H-W
VARIABLE_STEP        0.75
LENGTHENING_STEP     0
MIN_SURFAREA         1.167
MAX_TRIALS           8
HEAD_TOLERANCE       0.0015
SYS_FLOW_TOL         5
LAT_FLOW_TOL         5
MINIMUM_STEP         0.5
THREADS              1

[JUNCTIONS]
;;Name  Elevation  MaxDepth  InitDepth  SurDepth  Aponded
N1         50.000  2.20  0  0.50  120
N2         50.000  2.20  0  0.50  120
N3         50.000  2.20  0  0.50  120
N4         48.600  2.20  0  0.50  120
N5         48.600  2.20  0  0.50  120
N6         48.600  2.20  0  0.50  120
N7         48.600  2.20  0  0.50  120
N8         47.200  2.20  0  0.50  120
N9         47.200  2.20  0  0.50  120
N10        47.200  2.20  0  0.50  120
N11        45.800  2.20  0  0.50  120
N12        45.800  2.20  0  0.50  120
N13        45.800  2.20  0  0.50  120
N14        45.800  2.20  0  0.50  120
N15        44.400  2.20  0  0.50  120
N16        44.400  2.20  0  0.50  120
N17        44.400  2.20  0  0.50  120
N18        43.000  2.20  0  0.50  120
N19        41.600  2.20  0  0.50  120

[OUTFALLS]
;;Name  Elevation Type StageData Gated RouteTo
N20        40.000 FREE             NO

[CONDUITS]
;;Name FromNode ToNode Length Roughness InOffset OutOffset InitFlow MaxFlow
C1   N1     N4     100.0 0.013 0 0 0 0
C2   N1     N5     100.0 0.013 0 0 0 0
C3   N2     N5     100.0 0.013 0 0 0 0
C4   N2     N6     100.0 0.013 0 0 0 0
C5   N3     N6     100.0 0.013 0 0 0 0
C6   N3     N7     100.0 0.013 0 0 0 0
C7   N4     N8     100.0 0.013 0 0 0 0
C8   N5     N8     100.0 0.013 0 0 0 0
C9   N5     N9     100.0 0.013 0 0 0 0
C10  N6     N9     100.0 0.013 0 0 0 0
C11  N6     N10    100.0 0.013 0 0 0 0
C12  N7     N10    100.0 0.013 0 0 0 0
C13  N8     N11    100.0 0.013 0 0 0 0
C14  N9     N12    100.0 0.013 0 0 0 0
C15  N9     N13    100.0 0.013 0 0 0 0
C16  N10    N13    100.0 0.013 0 0 0 0
C17  N10    N14    100.0 0.013 0 0 0 0
C18  N11    N15    100.0 0.013 0 0 0 0
C19  N12    N15    100.0 0.013 0 0 0 0
C20  N12    N16    100.0 0.013 0 0 0 0
C21  N13    N16    100.0 0.013 0 0 0 0
C22  N14    N17    100.0 0.013 0 0 0 0
C23  N15    N18    100.0 0.013 0 0 0 0
C24  N16    N18    100.0 0.013 0 0 0 0
C25  N17    N19    100.0 0.013 0 0 0 0
C26  N18    N19    100.0 0.013 0 0 0 0
C27  N19    N20    100.0 0.013 0 0 0 0

[XSECTIONS]
;;Link Shape Geom1 Geom2 Geom3 Geom4 Barrels Culvert
C1   CIRCULAR 1.3500 0 0 0 1
C2   CIRCULAR 0.9500 0 0 0 1
C3   CIRCULAR 1.2167 0 0 0 1
C4   CIRCULAR 0.8833 0 0 0 1
C5   CIRCULAR 1.0833 0 0 0 1
C6   CIRCULAR 0.8167 0 0 0 1
C7   CIRCULAR 1.2833 0 0 0 1
C8   CIRCULAR 1.0167 0 0 0 1
C9   CIRCULAR 1.1500 0 0 0 1
C10  CIRCULAR 0.9500 0 0 0 1
C11  CIRCULAR 1.0537 0 0 0 1
C12  CIRCULAR 0.7500 0 0 0 1
C13  CIRCULAR 1.0833 0 0 0 1
C14  CIRCULAR 1.1500 0 0 0 1
C15  CIRCULAR 0.8167 0 0 0 1
C16  CIRCULAR 1.0167 0 0 0 1
C17  CIRCULAR 0.7500 0 0 0 1
C18  CIRCULAR 1.2167 0 0 0 1
C19  CIRCULAR 0.9500 0 0 0 1
C20  CIRCULAR 1.0833 0 0 0 1
C21  CIRCULAR 0.8167 0 0 0 1
C22  CIRCULAR 0.7500 0 0 0 1
C23  CIRCULAR 1.0833 0 0 0 1
C24  CIRCULAR 0.8833 0 0 0 1
C25  CIRCULAR 0.8167 0 0 0 1
C26  CIRCULAR 0.9500 0 0 0 1
C27  CIRCULAR 0.7500 0 0 0 1

[INFLOWS]
;;Node Constituent Time Series Type Mfactor Sfactor Baseline Pattern
N1       FLOW TS_N1    FLOW 1.0 1.0
N2       FLOW TS_N2    FLOW 1.0 1.0
N3       FLOW TS_N3    FLOW 1.0 1.0

[TIMESERIES]
;;Name Date Time Value
TS_N1    09/05/2026 00:00 0.0000
TS_N1    09/05/2026 00:30 0.4550
TS_N1    09/05/2026 01:00 1.3000
TS_N1    09/05/2026 01:30 0.9750
TS_N1    09/05/2026 02:00 0.4550
TS_N1    09/05/2026 02:30 0.1300
TS_N1    09/05/2026 03:00 0.0000
TS_N2    09/05/2026 00:00 0.0000
TS_N2    09/05/2026 00:30 0.3500
TS_N2    09/05/2026 01:00 1.0000
TS_N2    09/05/2026 01:30 0.7500
TS_N2    09/05/2026 02:00 0.3500
TS_N2    09/05/2026 02:30 0.1000
TS_N2    09/05/2026 03:00 0.0000
TS_N3    09/05/2026 00:00 0.0000
TS_N3    09/05/2026 00:30 0.4025
TS_N3    09/05/2026 01:00 1.1500
TS_N3    09/05/2026 01:30 0.8625
TS_N3    09/05/2026 02:00 0.4025
TS_N3    09/05/2026 02:30 0.1150
TS_N3    09/05/2026 03:00 0.0000

[REPORT]
INPUT NO
CONTROLS NO
SUBCATCHMENTS NONE
NODES ALL
LINKS ALL

[COORDINATES]
;;Node X-Coord Y-Coord
N1       0.0 0.0
N2       0.0 80.0
N3       0.0 160.0
N4       100.0 0.0
N5       100.0 80.0
N6       100.0 160.0
N7       100.0 240.0
N8       200.0 0.0
N9       200.0 80.0
N10      200.0 160.0
N11      300.0 0.0
N12      300.0 80.0
N13      300.0 160.0
N14      300.0 240.0
N15      400.0 0.0
N16      400.0 80.0
N17      400.0 160.0
N18      500.0 0.0
N19      600.0 0.0
N20      700.0 0.0
